p cnf 561 1618
e 9 8 7 6 5 4 3 2 1 0
a 18 17 16 15 14 13 12 11 10 0
e 27 26 25 24 23 22 21 20 19 0
a 36 35 34 33 32 31 30 29 28 0
e 45 44 43 42 41 40 39 38 37 0
a 54 53 52 51 50 49 48 47 46 0
e 63 62 61 60 59 58 57 56 55 0
a 72 71 70 69 68 67 66 65 64 0
e 81 80 79 78 77 76 75 74 73 0
e 82 83 84 85 86 87 88 89 90 91 92 93 94 95 96 97 98 99 100 101 102 103 104 105 106 107 108 109 110 111 112 113 114 115 116 117 118 119 120 121 122 123 124 125 126 127 128 129 130 131 132 133 134 135 136 137 138 139 140 141 142 143 144 145 146 147 148 149 150 151 152 153 154 155 156 157 158 159 160 161 162 163 164 165 166 167 168 169 170 171 172 173 174 175 176 177 178 179 180 181 182 183 184 185 186 187 188 189 190 191 192 193 194 195 196 197 198 199 200 201 202 203 204 205 206 207 208 209 210 211 212 213 214 215 216 217 218 219 220 221 222 223 224 225 226 227 228 229 230 231 232 233 234 235 236 237 238 239 240 241 242 243 244 245 246 247 248 249 250 251 252 253 254 255 256 257 258 259 260 261 262 263 264 265 266 267 268 269 270 271 272 273 274 275 276 277 278 279 280 281 282 283 284 285 286 287 288 289 290 291 292 293 294 295 296 297 298 299 300 301 302 303 304 305 306 307 308 309 310 311 312 313 314 315 316 317 318 319 320 321 322 323 324 325 326 327 328 329 330 331 332 333 334 335 336 337 338 339 340 341 342 343 344 345 346 347 348 349 350 351 352 353 354 355 356 357 358 359 360 361 362 363 364 365 366 367 368 369 370 371 372 373 374 375 376 377 378 379 380 381 382 383 384 385 386 387 388 389 390 391 392 393 394 395 396 397 398 399 400 401 402 403 404 405 406 407 408 409 410 411 412 413 414 415 416 417 418 419 420 421 422 423 424 425 426 427 428 429 430 431 432 433 434 435 436 437 438 439 440 441 442 443 444 445 446 447 448 449 450 451 452 453 454 455 456 457 458 459 460 461 462 463 464 465 466 467 468 469 470 471 472 473 474 475 476 477 478 479 480 481 482 483 484 485 486 487 488 489 490 491 492 493 494 495 496 497 498 499 500 501 502 503 504 505 506 507 508 509 510 511 512 513 514 515 516 517 518 519 520 521 522 523 524 525 526 527 528 529 530 531 532 533 534 535 536 537 538 539 540 541 542 543 544 545 546 547 548 549 550 551 552 553 554 555 556 557 558 559 560 561 0
-1 -10 0
-1 -19 0
-1 -28 0
-1 -37 0
-1 -46 0
-1 -55 0
-1 -64 0
-1 -73 0
-10 -19 0
-10 -28 0
-10 -37 0
-10 -46 0
-10 -55 0
-10 -64 0
-10 -73 0
-19 -28 0
-19 -37 0
-19 -46 0
-19 -55 0
-19 -64 0
-19 -73 0
-28 -37 0
-28 -46 0
-28 -55 0
-28 -64 0
-28 -73 0
-37 -46 0
-37 -55 0
-37 -64 0
-37 -73 0
-46 -55 0
-46 -64 0
-46 -73 0
-55 -64 0
-55 -73 0
-64 -73 0
-2 -11 0
-2 -20 0
-2 -29 0
-2 -38 0
-2 -47 0
-2 -56 0
-2 -65 0
-2 -74 0
-11 -20 0
-11 -29 0
-11 -38 0
-11 -47 0
-11 -56 0
-11 -65 0
-11 -74 0
-20 -29 0
-20 -38 0
-20 -47 0
-20 -56 0
-20 -65 0
-20 -74 0
-29 -38 0
-29 -47 0
-29 -56 0
-29 -65 0
-29 -74 0
-38 -47 0
-38 -56 0
-38 -65 0
-38 -74 0
-47 -56 0
-47 -65 0
-47 -74 0
-56 -65 0
-56 -74 0
-65 -74 0
-3 -12 0
-3 -21 0
-3 -30 0
-3 -39 0
-3 -48 0
-3 -57 0
-3 -66 0
-3 -75 0
-12 -21 0
-12 -30 0
-12 -39 0
-12 -48 0
-12 -57 0
-12 -66 0
-12 -75 0
-21 -30 0
-21 -39 0
-21 -48 0
-21 -57 0
-21 -66 0
-21 -75 0
-30 -39 0
-30 -48 0
-30 -57 0
-30 -66 0
-30 -75 0
-39 -48 0
-39 -57 0
-39 -66 0
-39 -75 0
-48 -57 0
-48 -66 0
-48 -75 0
-57 -66 0
-57 -75 0
-66 -75 0
-4 -13 0
-4 -22 0
-4 -31 0
-4 -40 0
-4 -49 0
-4 -58 0
-4 -67 0
-4 -76 0
-13 -22 0
-13 -31 0
-13 -40 0
-13 -49 0
-13 -58 0
-13 -67 0
-13 -76 0
-22 -31 0
-22 -40 0
-22 -49 0
-22 -58 0
-22 -67 0
-22 -76 0
-31 -40 0
-31 -49 0
-31 -58 0
-31 -67 0
-31 -76 0
-40 -49 0
-40 -58 0
-40 -67 0
-40 -76 0
-49 -58 0
-49 -67 0
-49 -76 0
-58 -67 0
-58 -76 0
-67 -76 0
-5 -14 0
-5 -23 0
-5 -32 0
-5 -41 0
-5 -50 0
-5 -59 0
-5 -68 0
-5 -77 0
-14 -23 0
-14 -32 0
-14 -41 0
-14 -50 0
-14 -59 0
-14 -68 0
-14 -77 0
-23 -32 0
-23 -41 0
-23 -50 0
-23 -59 0
-23 -68 0
-23 -77 0
-32 -41 0
-32 -50 0
-32 -59 0
-32 -68 0
-32 -77 0
-41 -50 0
-41 -59 0
-41 -68 0
-41 -77 0
-50 -59 0
-50 -68 0
-50 -77 0
-59 -68 0
-59 -77 0
-68 -77 0
-6 -15 0
-6 -24 0
-6 -33 0
-6 -42 0
-6 -51 0
-6 -60 0
-6 -69 0
-6 -78 0
-15 -24 0
-15 -33 0
-15 -42 0
-15 -51 0
-15 -60 0
-15 -69 0
-15 -78 0
-24 -33 0
-24 -42 0
-24 -51 0
-24 -60 0
-24 -69 0
-24 -78 0
-33 -42 0
-33 -51 0
-33 -60 0
-33 -69 0
-33 -78 0
-42 -51 0
-42 -60 0
-42 -69 0
-42 -78 0
-51 -60 0
-51 -69 0
-51 -78 0
-60 -69 0
-60 -78 0
-69 -78 0
-7 -16 0
-7 -25 0
-7 -34 0
-7 -43 0
-7 -52 0
-7 -61 0
-7 -70 0
-7 -79 0
-16 -25 0
-16 -34 0
-16 -43 0
-16 -52 0
-16 -61 0
-16 -70 0
-16 -79 0
-25 -34 0
-25 -43 0
-25 -52 0
-25 -61 0
-25 -70 0
-25 -79 0
-34 -43 0
-34 -52 0
-34 -61 0
-34 -70 0
-34 -79 0
-43 -52 0
-43 -61 0
-43 -70 0
-43 -79 0
-52 -61 0
-52 -70 0
-52 -79 0
-61 -70 0
-61 -79 0
-70 -79 0
-8 -17 0
-8 -26 0
-8 -35 0
-8 -44 0
-8 -53 0
-8 -62 0
-8 -71 0
-8 -80 0
-17 -26 0
-17 -35 0
-17 -44 0
-17 -53 0
-17 -62 0
-17 -71 0
-17 -80 0
-26 -35 0
-26 -44 0
-26 -53 0
-26 -62 0
-26 -71 0
-26 -80 0
-35 -44 0
-35 -53 0
-35 -62 0
-35 -71 0
-35 -80 0
-44 -53 0
-44 -62 0
-44 -71 0
-44 -80 0
-53 -62 0
-53 -71 0
-53 -80 0
-62 -71 0
-62 -80 0
-71 -80 0
-9 -18 0
-9 -27 0
-9 -36 0
-9 -45 0
-9 -54 0
-9 -63 0
-9 -72 0
-9 -81 0
-18 -27 0
-18 -36 0
-18 -45 0
-18 -54 0
-18 -63 0
-18 -72 0
-18 -81 0
-27 -36 0
-27 -45 0
-27 -54 0
-27 -63 0
-27 -72 0
-27 -81 0
-36 -45 0
-36 -54 0
-36 -63 0
-36 -72 0
-36 -81 0
-45 -54 0
-45 -63 0
-45 -72 0
-45 -81 0
-54 -63 0
-54 -72 0
-54 -81 0
-63 -72 0
-63 -81 0
-72 -81 0
1 2 3 4 5 6 7 8 9 0
10 11 12 13 14 15 16 17 18 0
19 20 21 22 23 24 25 26 27 0
28 29 30 31 32 33 34 35 36 0
37 38 39 40 41 42 43 44 45 0
46 47 48 49 50 51 52 53 54 0
55 56 57 58 59 60 61 62 63 0
64 65 66 67 68 69 70 71 72 0
73 74 75 76 77 78 79 80 81 0
-1 -2 0
-1 -3 0
-1 -4 0
-1 -5 0
-1 -6 0
-1 -7 0
-1 -8 0
-1 -9 0
-2 -3 0
-2 -4 0
-2 -5 0
-2 -6 0
-2 -7 0
-2 -8 0
-2 -9 0
-3 -4 0
-3 -5 0
-3 -6 0
-3 -7 0
-3 -8 0
-3 -9 0
-4 -5 0
-4 -6 0
-4 -7 0
-4 -8 0
-4 -9 0
-5 -6 0
-5 -7 0
-5 -8 0
-5 -9 0
-6 -7 0
-6 -8 0
-6 -9 0
-7 -8 0
-7 -9 0
-8 -9 0
-10 -11 0
-10 -12 0
-10 -13 0
-10 -14 0
-10 -15 0
-10 -16 0
-10 -17 0
-10 -18 0
-11 -12 0
-11 -13 0
-11 -14 0
-11 -15 0
-11 -16 0
-11 -17 0
-11 -18 0
-12 -13 0
-12 -14 0
-12 -15 0
-12 -16 0
-12 -17 0
-12 -18 0
-13 -14 0
-13 -15 0
-13 -16 0
-13 -17 0
-13 -18 0
-14 -15 0
-14 -16 0
-14 -17 0
-14 -18 0
-15 -16 0
-15 -17 0
-15 -18 0
-16 -17 0
-16 -18 0
-17 -18 0
-19 -20 0
-19 -21 0
-19 -22 0
-19 -23 0
-19 -24 0
-19 -25 0
-19 -26 0
-19 -27 0
-20 -21 0
-20 -22 0
-20 -23 0
-20 -24 0
-20 -25 0
-20 -26 0
-20 -27 0
-21 -22 0
-21 -23 0
-21 -24 0
-21 -25 0
-21 -26 0
-21 -27 0
-22 -23 0
-22 -24 0
-22 -25 0
-22 -26 0
-22 -27 0
-23 -24 0
-23 -25 0
-23 -26 0
-23 -27 0
-24 -25 0
-24 -26 0
-24 -27 0
-25 -26 0
-25 -27 0
-26 -27 0
-28 -29 0
-28 -30 0
-28 -31 0
-28 -32 0
-28 -33 0
-28 -34 0
-28 -35 0
-28 -36 0
-29 -30 0
-29 -31 0
-29 -32 0
-29 -33 0
-29 -34 0
-29 -35 0
-29 -36 0
-30 -31 0
-30 -32 0
-30 -33 0
-30 -34 0
-30 -35 0
-30 -36 0
-31 -32 0
-31 -33 0
-31 -34 0
-31 -35 0
-31 -36 0
-32 -33 0
-32 -34 0
-32 -35 0
-32 -36 0
-33 -34 0
-33 -35 0
-33 -36 0
-34 -35 0
-34 -36 0
-35 -36 0
-37 -38 0
-37 -39 0
-37 -40 0
-37 -41 0
-37 -42 0
-37 -43 0
-37 -44 0
-37 -45 0
-38 -39 0
-38 -40 0
-38 -41 0
-38 -42 0
-38 -43 0
-38 -44 0
-38 -45 0
-39 -40 0
-39 -41 0
-39 -42 0
-39 -43 0
-39 -44 0
-39 -45 0
-40 -41 0
-40 -42 0
-40 -43 0
-40 -44 0
-40 -45 0
-41 -42 0
-41 -43 0
-41 -44 0
-41 -45 0
-42 -43 0
-42 -44 0
-42 -45 0
-43 -44 0
-43 -45 0
-44 -45 0
-46 -47 0
-46 -48 0
-46 -49 0
-46 -50 0
-46 -51 0
-46 -52 0
-46 -53 0
-46 -54 0
-47 -48 0
-47 -49 0
-47 -50 0
-47 -51 0
-47 -52 0
-47 -53 0
-47 -54 0
-48 -49 0
-48 -50 0
-48 -51 0
-48 -52 0
-48 -53 0
-48 -54 0
-49 -50 0
-49 -51 0
-49 -52 0
-49 -53 0
-49 -54 0
-50 -51 0
-50 -52 0
-50 -53 0
-50 -54 0
-51 -52 0
-51 -53 0
-51 -54 0
-52 -53 0
-52 -54 0
-53 -54 0
-55 -56 0
-55 -57 0
-55 -58 0
-55 -59 0
-55 -60 0
-55 -61 0
-55 -62 0
-55 -63 0
-56 -57 0
-56 -58 0
-56 -59 0
-56 -60 0
-56 -61 0
-56 -62 0
-56 -63 0
-57 -58 0
-57 -59 0
-57 -60 0
-57 -61 0
-57 -62 0
-57 -63 0
-58 -59 0
-58 -60 0
-58 -61 0
-58 -62 0
-58 -63 0
-59 -60 0
-59 -61 0
-59 -62 0
-59 -63 0
-60 -61 0
-60 -62 0
-60 -63 0
-61 -62 0
-61 -63 0
-62 -63 0
-64 -65 0
-64 -66 0
-64 -67 0
-64 -68 0
-64 -69 0
-64 -70 0
-64 -71 0
-64 -72 0
-65 -66 0
-65 -67 0
-65 -68 0
-65 -69 0
-65 -70 0
-65 -71 0
-65 -72 0
-66 -67 0
-66 -68 0
-66 -69 0
-66 -70 0
-66 -71 0
-66 -72 0
-67 -68 0
-67 -69 0
-67 -70 0
-67 -71 0
-67 -72 0
-68 -69 0
-68 -70 0
-68 -71 0
-68 -72 0
-69 -70 0
-69 -71 0
-69 -72 0
-70 -71 0
-70 -72 0
-71 -72 0
-73 -74 0
-73 -75 0
-73 -76 0
-73 -77 0
-73 -78 0
-73 -79 0
-73 -80 0
-73 -81 0
-74 -75 0
-74 -76 0
-74 -77 0
-74 -78 0
-74 -79 0
-74 -80 0
-74 -81 0
-75 -76 0
-75 -77 0
-75 -78 0
-75 -79 0
-75 -80 0
-75 -81 0
-76 -77 0
-76 -78 0
-76 -79 0
-76 -80 0
-76 -81 0
-77 -78 0
-77 -79 0
-77 -80 0
-77 -81 0
-78 -79 0
-78 -80 0
-78 -81 0
-79 -80 0
-79 -81 0
-80 -81 0
c !! End rules - start Tseitin clauses
-82 1 20 39 0
82 -1 -20 -39 0
-83 1 20 57 0
83 -1 -20 -57 0
-84 1 20 75 0
84 -1 -20 -75 0
-85 1 38 57 0
85 -1 -38 -57 0
-86 1 38 75 0
86 -1 -38 -75 0
-87 1 56 75 0
87 -1 -56 -75 0
-88 19 38 57 0
88 -19 -38 -57 0
-89 19 38 75 0
89 -19 -38 -75 0
-90 19 56 75 0
90 -19 -56 -75 0
-91 37 56 75 0
91 -37 -56 -75 0
-92 1 21 38 0
92 -1 -21 -38 0
-93 1 21 56 0
93 -1 -21 -56 0
-94 1 21 74 0
94 -1 -21 -74 0
-95 1 39 56 0
95 -1 -39 -56 0
-96 1 39 74 0
96 -1 -39 -74 0
-97 1 57 74 0
97 -1 -57 -74 0
-98 19 39 56 0
98 -19 -39 -56 0
-99 19 39 74 0
99 -19 -39 -74 0
-100 19 57 74 0
100 -19 -57 -74 0
-101 37 57 74 0
101 -37 -57 -74 0
-102 2 19 39 0
102 -2 -19 -39 0
-103 2 19 57 0
103 -2 -19 -57 0
-104 2 19 75 0
104 -2 -19 -75 0
-105 2 37 57 0
105 -2 -37 -57 0
-106 2 37 75 0
106 -2 -37 -75 0
-107 2 55 75 0
107 -2 -55 -75 0
-108 20 37 57 0
108 -20 -37 -57 0
-109 20 37 75 0
109 -20 -37 -75 0
-110 20 55 75 0
110 -20 -55 -75 0
-111 38 55 75 0
111 -38 -55 -75 0
-112 2 21 37 0
112 -2 -21 -37 0
-113 2 21 55 0
113 -2 -21 -55 0
-114 2 21 73 0
114 -2 -21 -73 0
-115 2 39 55 0
115 -2 -39 -55 0
-116 2 39 73 0
116 -2 -39 -73 0
-117 2 57 73 0
117 -2 -57 -73 0
-118 20 39 55 0
118 -20 -39 -55 0
-119 20 39 73 0
119 -20 -39 -73 0
-120 20 57 73 0
120 -20 -57 -73 0
-121 38 57 73 0
121 -38 -57 -73 0
-122 3 19 38 0
122 -3 -19 -38 0
-123 3 19 56 0
123 -3 -19 -56 0
-124 3 19 74 0
124 -3 -19 -74 0
-125 3 37 56 0
125 -3 -37 -56 0
-126 3 37 74 0
126 -3 -37 -74 0
-127 3 55 74 0
127 -3 -55 -74 0
-128 21 37 56 0
128 -21 -37 -56 0
-129 21 37 74 0
129 -21 -37 -74 0
-130 21 55 74 0
130 -21 -55 -74 0
-131 39 55 74 0
131 -39 -55 -74 0
-132 3 20 37 0
132 -3 -20 -37 0
-133 3 20 55 0
133 -3 -20 -55 0
-134 3 20 73 0
134 -3 -20 -73 0
-135 3 38 55 0
135 -3 -38 -55 0
-136 3 38 73 0
136 -3 -38 -73 0
-137 3 56 73 0
137 -3 -56 -73 0
-138 21 38 55 0
138 -21 -38 -55 0
-139 21 38 73 0
139 -21 -38 -73 0
-140 21 56 73 0
140 -21 -56 -73 0
-141 39 56 73 0
141 -39 -56 -73 0
-142 1 22 43 0
142 -1 -22 -43 0
-143 1 22 61 0
143 -1 -22 -61 0
-144 1 22 79 0
144 -1 -22 -79 0
-145 1 40 61 0
145 -1 -40 -61 0
-146 1 40 79 0
146 -1 -40 -79 0
-147 1 58 79 0
147 -1 -58 -79 0
-148 19 40 61 0
148 -19 -40 -61 0
-149 19 40 79 0
149 -19 -40 -79 0
-150 19 58 79 0
150 -19 -58 -79 0
-151 37 58 79 0
151 -37 -58 -79 0
-152 1 25 40 0
152 -1 -25 -40 0
-153 1 25 58 0
153 -1 -25 -58 0
-154 1 25 76 0
154 -1 -25 -76 0
-155 1 43 58 0
155 -1 -43 -58 0
-156 1 43 76 0
156 -1 -43 -76 0
-157 1 61 76 0
157 -1 -61 -76 0
-158 19 43 58 0
158 -19 -43 -58 0
-159 19 43 76 0
159 -19 -43 -76 0
-160 19 61 76 0
160 -19 -61 -76 0
-161 37 61 76 0
161 -37 -61 -76 0
-162 4 19 43 0
162 -4 -19 -43 0
-163 4 19 61 0
163 -4 -19 -61 0
-164 4 19 79 0
164 -4 -19 -79 0
-165 4 37 61 0
165 -4 -37 -61 0
-166 4 37 79 0
166 -4 -37 -79 0
-167 4 55 79 0
167 -4 -55 -79 0
-168 22 37 61 0
168 -22 -37 -61 0
-169 22 37 79 0
169 -22 -37 -79 0
-170 22 55 79 0
170 -22 -55 -79 0
-171 40 55 79 0
171 -40 -55 -79 0
-172 4 25 37 0
172 -4 -25 -37 0
-173 4 25 55 0
173 -4 -25 -55 0
-174 4 25 73 0
174 -4 -25 -73 0
-175 4 43 55 0
175 -4 -43 -55 0
-176 4 43 73 0
176 -4 -43 -73 0
-177 4 61 73 0
177 -4 -61 -73 0
-178 22 43 55 0
178 -22 -43 -55 0
-179 22 43 73 0
179 -22 -43 -73 0
-180 22 61 73 0
180 -22 -61 -73 0
-181 40 61 73 0
181 -40 -61 -73 0
-182 7 19 40 0
182 -7 -19 -40 0
-183 7 19 58 0
183 -7 -19 -58 0
-184 7 19 76 0
184 -7 -19 -76 0
-185 7 37 58 0
185 -7 -37 -58 0
-186 7 37 76 0
186 -7 -37 -76 0
-187 7 55 76 0
187 -7 -55 -76 0
-188 25 37 58 0
188 -25 -37 -58 0
-189 25 37 76 0
189 -25 -37 -76 0
-190 25 55 76 0
190 -25 -55 -76 0
-191 43 55 76 0
191 -43 -55 -76 0
-192 7 22 37 0
192 -7 -22 -37 0
-193 7 22 55 0
193 -7 -22 -55 0
-194 7 22 73 0
194 -7 -22 -73 0
-195 7 40 55 0
195 -7 -40 -55 0
-196 7 40 73 0
196 -7 -40 -73 0
-197 7 58 73 0
197 -7 -58 -73 0
-198 25 40 55 0
198 -25 -40 -55 0
-199 25 40 73 0
199 -25 -40 -73 0
-200 25 58 73 0
200 -25 -58 -73 0
-201 43 58 73 0
201 -43 -58 -73 0
-202 4 23 42 0
202 -4 -23 -42 0
-203 4 23 60 0
203 -4 -23 -60 0
-204 4 23 78 0
204 -4 -23 -78 0
-205 4 41 60 0
205 -4 -41 -60 0
-206 4 41 78 0
206 -4 -41 -78 0
-207 4 59 78 0
207 -4 -59 -78 0
-208 22 41 60 0
208 -22 -41 -60 0
-209 22 41 78 0
209 -22 -41 -78 0
-210 22 59 78 0
210 -22 -59 -78 0
-211 40 59 78 0
211 -40 -59 -78 0
-212 4 24 41 0
212 -4 -24 -41 0
-213 4 24 59 0
213 -4 -24 -59 0
-214 4 24 77 0
214 -4 -24 -77 0
-215 4 42 59 0
215 -4 -42 -59 0
-216 4 42 77 0
216 -4 -42 -77 0
-217 4 60 77 0
217 -4 -60 -77 0
-218 22 42 59 0
218 -22 -42 -59 0
-219 22 42 77 0
219 -22 -42 -77 0
-220 22 60 77 0
220 -22 -60 -77 0
-221 40 60 77 0
221 -40 -60 -77 0
-222 5 22 42 0
222 -5 -22 -42 0
-223 5 22 60 0
223 -5 -22 -60 0
-224 5 22 78 0
224 -5 -22 -78 0
-225 5 40 60 0
225 -5 -40 -60 0
-226 5 40 78 0
226 -5 -40 -78 0
-227 5 58 78 0
227 -5 -58 -78 0
-228 23 40 60 0
228 -23 -40 -60 0
-229 23 40 78 0
229 -23 -40 -78 0
-230 23 58 78 0
230 -23 -58 -78 0
-231 41 58 78 0
231 -41 -58 -78 0
-232 5 24 40 0
232 -5 -24 -40 0
-233 5 24 58 0
233 -5 -24 -58 0
-234 5 24 76 0
234 -5 -24 -76 0
-235 5 42 58 0
235 -5 -42 -58 0
-236 5 42 76 0
236 -5 -42 -76 0
-237 5 60 76 0
237 -5 -60 -76 0
-238 23 42 58 0
238 -23 -42 -58 0
-239 23 42 76 0
239 -23 -42 -76 0
-240 23 60 76 0
240 -23 -60 -76 0
-241 41 60 76 0
241 -41 -60 -76 0
-242 6 22 41 0
242 -6 -22 -41 0
-243 6 22 59 0
243 -6 -22 -59 0
-244 6 22 77 0
244 -6 -22 -77 0
-245 6 40 59 0
245 -6 -40 -59 0
-246 6 40 77 0
246 -6 -40 -77 0
-247 6 58 77 0
247 -6 -58 -77 0
-248 24 40 59 0
248 -24 -40 -59 0
-249 24 40 77 0
249 -24 -40 -77 0
-250 24 58 77 0
250 -24 -58 -77 0
-251 42 58 77 0
251 -42 -58 -77 0
-252 6 23 40 0
252 -6 -23 -40 0
-253 6 23 58 0
253 -6 -23 -58 0
-254 6 23 76 0
254 -6 -23 -76 0
-255 6 41 58 0
255 -6 -41 -58 0
-256 6 41 76 0
256 -6 -41 -76 0
-257 6 59 76 0
257 -6 -59 -76 0
-258 24 41 58 0
258 -24 -41 -58 0
-259 24 41 76 0
259 -24 -41 -76 0
-260 24 59 76 0
260 -24 -59 -76 0
-261 42 59 76 0
261 -42 -59 -76 0
-262 2 23 44 0
262 -2 -23 -44 0
-263 2 23 62 0
263 -2 -23 -62 0
-264 2 23 80 0
264 -2 -23 -80 0
-265 2 41 62 0
265 -2 -41 -62 0
-266 2 41 80 0
266 -2 -41 -80 0
-267 2 59 80 0
267 -2 -59 -80 0
-268 20 41 62 0
268 -20 -41 -62 0
-269 20 41 80 0
269 -20 -41 -80 0
-270 20 59 80 0
270 -20 -59 -80 0
-271 38 59 80 0
271 -38 -59 -80 0
-272 2 26 41 0
272 -2 -26 -41 0
-273 2 26 59 0
273 -2 -26 -59 0
-274 2 26 77 0
274 -2 -26 -77 0
-275 2 44 59 0
275 -2 -44 -59 0
-276 2 44 77 0
276 -2 -44 -77 0
-277 2 62 77 0
277 -2 -62 -77 0
-278 20 44 59 0
278 -20 -44 -59 0
-279 20 44 77 0
279 -20 -44 -77 0
-280 20 62 77 0
280 -20 -62 -77 0
-281 38 62 77 0
281 -38 -62 -77 0
-282 5 20 44 0
282 -5 -20 -44 0
-283 5 20 62 0
283 -5 -20 -62 0
-284 5 20 80 0
284 -5 -20 -80 0
-285 5 38 62 0
285 -5 -38 -62 0
-286 5 38 80 0
286 -5 -38 -80 0
-287 5 56 80 0
287 -5 -56 -80 0
-288 23 38 62 0
288 -23 -38 -62 0
-289 23 38 80 0
289 -23 -38 -80 0
-290 23 56 80 0
290 -23 -56 -80 0
-291 41 56 80 0
291 -41 -56 -80 0
-292 5 26 38 0
292 -5 -26 -38 0
-293 5 26 56 0
293 -5 -26 -56 0
-294 5 26 74 0
294 -5 -26 -74 0
-295 5 44 56 0
295 -5 -44 -56 0
-296 5 44 74 0
296 -5 -44 -74 0
-297 5 62 74 0
297 -5 -62 -74 0
-298 23 44 56 0
298 -23 -44 -56 0
-299 23 44 74 0
299 -23 -44 -74 0
-300 23 62 74 0
300 -23 -62 -74 0
-301 41 62 74 0
301 -41 -62 -74 0
-302 8 20 41 0
302 -8 -20 -41 0
-303 8 20 59 0
303 -8 -20 -59 0
-304 8 20 77 0
304 -8 -20 -77 0
-305 8 38 59 0
305 -8 -38 -59 0
-306 8 38 77 0
306 -8 -38 -77 0
-307 8 56 77 0
307 -8 -56 -77 0
-308 26 38 59 0
308 -26 -38 -59 0
-309 26 38 77 0
309 -26 -38 -77 0
-310 26 56 77 0
310 -26 -56 -77 0
-311 44 56 77 0
311 -44 -56 -77 0
-312 8 23 38 0
312 -8 -23 -38 0
-313 8 23 56 0
313 -8 -23 -56 0
-314 8 23 74 0
314 -8 -23 -74 0
-315 8 41 56 0
315 -8 -41 -56 0
-316 8 41 74 0
316 -8 -41 -74 0
-317 8 59 74 0
317 -8 -59 -74 0
-318 26 41 56 0
318 -26 -41 -56 0
-319 26 41 74 0
319 -26 -41 -74 0
-320 26 59 74 0
320 -26 -59 -74 0
-321 44 59 74 0
321 -44 -59 -74 0
-322 7 26 45 0
322 -7 -26 -45 0
-323 7 26 63 0
323 -7 -26 -63 0
-324 7 26 81 0
324 -7 -26 -81 0
-325 7 44 63 0
325 -7 -44 -63 0
-326 7 44 81 0
326 -7 -44 -81 0
-327 7 62 81 0
327 -7 -62 -81 0
-328 25 44 63 0
328 -25 -44 -63 0
-329 25 44 81 0
329 -25 -44 -81 0
-330 25 62 81 0
330 -25 -62 -81 0
-331 43 62 81 0
331 -43 -62 -81 0
-332 7 27 44 0
332 -7 -27 -44 0
-333 7 27 62 0
333 -7 -27 -62 0
-334 7 27 80 0
334 -7 -27 -80 0
-335 7 45 62 0
335 -7 -45 -62 0
-336 7 45 80 0
336 -7 -45 -80 0
-337 7 63 80 0
337 -7 -63 -80 0
-338 25 45 62 0
338 -25 -45 -62 0
-339 25 45 80 0
339 -25 -45 -80 0
-340 25 63 80 0
340 -25 -63 -80 0
-341 43 63 80 0
341 -43 -63 -80 0
-342 8 25 45 0
342 -8 -25 -45 0
-343 8 25 63 0
343 -8 -25 -63 0
-344 8 25 81 0
344 -8 -25 -81 0
-345 8 43 63 0
345 -8 -43 -63 0
-346 8 43 81 0
346 -8 -43 -81 0
-347 8 61 81 0
347 -8 -61 -81 0
-348 26 43 63 0
348 -26 -43 -63 0
-349 26 43 81 0
349 -26 -43 -81 0
-350 26 61 81 0
350 -26 -61 -81 0
-351 44 61 81 0
351 -44 -61 -81 0
-352 8 27 43 0
352 -8 -27 -43 0
-353 8 27 61 0
353 -8 -27 -61 0
-354 8 27 79 0
354 -8 -27 -79 0
-355 8 45 61 0
355 -8 -45 -61 0
-356 8 45 79 0
356 -8 -45 -79 0
-357 8 63 79 0
357 -8 -63 -79 0
-358 26 45 61 0
358 -26 -45 -61 0
-359 26 45 79 0
359 -26 -45 -79 0
-360 26 63 79 0
360 -26 -63 -79 0
-361 44 63 79 0
361 -44 -63 -79 0
-362 9 25 44 0
362 -9 -25 -44 0
-363 9 25 62 0
363 -9 -25 -62 0
-364 9 25 80 0
364 -9 -25 -80 0
-365 9 43 62 0
365 -9 -43 -62 0
-366 9 43 80 0
366 -9 -43 -80 0
-367 9 61 80 0
367 -9 -61 -80 0
-368 27 43 62 0
368 -27 -43 -62 0
-369 27 43 80 0
369 -27 -43 -80 0
-370 27 61 80 0
370 -27 -61 -80 0
-371 45 61 80 0
371 -45 -61 -80 0
-372 9 26 43 0
372 -9 -26 -43 0
-373 9 26 61 0
373 -9 -26 -61 0
-374 9 26 79 0
374 -9 -26 -79 0
-375 9 44 61 0
375 -9 -44 -61 0
-376 9 44 79 0
376 -9 -44 -79 0
-377 9 62 79 0
377 -9 -62 -79 0
-378 27 44 61 0
378 -27 -44 -61 0
-379 27 44 79 0
379 -27 -44 -79 0
-380 27 62 79 0
380 -27 -62 -79 0
-381 45 62 79 0
381 -45 -62 -79 0
-382 3 24 45 0
382 -3 -24 -45 0
-383 3 24 63 0
383 -3 -24 -63 0
-384 3 24 81 0
384 -3 -24 -81 0
-385 3 42 63 0
385 -3 -42 -63 0
-386 3 42 81 0
386 -3 -42 -81 0
-387 3 60 81 0
387 -3 -60 -81 0
-388 21 42 63 0
388 -21 -42 -63 0
-389 21 42 81 0
389 -21 -42 -81 0
-390 21 60 81 0
390 -21 -60 -81 0
-391 39 60 81 0
391 -39 -60 -81 0
-392 3 27 42 0
392 -3 -27 -42 0
-393 3 27 60 0
393 -3 -27 -60 0
-394 3 27 78 0
394 -3 -27 -78 0
-395 3 45 60 0
395 -3 -45 -60 0
-396 3 45 78 0
396 -3 -45 -78 0
-397 3 63 78 0
397 -3 -63 -78 0
-398 21 45 60 0
398 -21 -45 -60 0
-399 21 45 78 0
399 -21 -45 -78 0
-400 21 63 78 0
400 -21 -63 -78 0
-401 39 63 78 0
401 -39 -63 -78 0
-402 6 21 45 0
402 -6 -21 -45 0
-403 6 21 63 0
403 -6 -21 -63 0
-404 6 21 81 0
404 -6 -21 -81 0
-405 6 39 63 0
405 -6 -39 -63 0
-406 6 39 81 0
406 -6 -39 -81 0
-407 6 57 81 0
407 -6 -57 -81 0
-408 24 39 63 0
408 -24 -39 -63 0
-409 24 39 81 0
409 -24 -39 -81 0
-410 24 57 81 0
410 -24 -57 -81 0
-411 42 57 81 0
411 -42 -57 -81 0
-412 6 27 39 0
412 -6 -27 -39 0
-413 6 27 57 0
413 -6 -27 -57 0
-414 6 27 75 0
414 -6 -27 -75 0
-415 6 45 57 0
415 -6 -45 -57 0
-416 6 45 75 0
416 -6 -45 -75 0
-417 6 63 75 0
417 -6 -63 -75 0
-418 24 45 57 0
418 -24 -45 -57 0
-419 24 45 75 0
419 -24 -45 -75 0
-420 24 63 75 0
420 -24 -63 -75 0
-421 42 63 75 0
421 -42 -63 -75 0
-422 9 21 42 0
422 -9 -21 -42 0
-423 9 21 60 0
423 -9 -21 -60 0
-424 9 21 78 0
424 -9 -21 -78 0
-425 9 39 60 0
425 -9 -39 -60 0
-426 9 39 78 0
426 -9 -39 -78 0
-427 9 57 78 0
427 -9 -57 -78 0
-428 27 39 60 0
428 -27 -39 -60 0
-429 27 39 78 0
429 -27 -39 -78 0
-430 27 57 78 0
430 -27 -57 -78 0
-431 45 57 78 0
431 -45 -57 -78 0
-432 9 24 39 0
432 -9 -24 -39 0
-433 9 24 57 0
433 -9 -24 -57 0
-434 9 24 75 0
434 -9 -24 -75 0
-435 9 42 57 0
435 -9 -42 -57 0
-436 9 42 75 0
436 -9 -42 -75 0
-437 9 60 75 0
437 -9 -60 -75 0
-438 27 42 57 0
438 -27 -42 -57 0
-439 27 42 75 0
439 -27 -42 -75 0
-440 27 60 75 0
440 -27 -60 -75 0
-441 45 60 75 0
441 -45 -60 -75 0
-442 1 23 45 0
442 -1 -23 -45 0
-443 1 23 63 0
443 -1 -23 -63 0
-444 1 23 81 0
444 -1 -23 -81 0
-445 1 41 63 0
445 -1 -41 -63 0
-446 1 41 81 0
446 -1 -41 -81 0
-447 1 59 81 0
447 -1 -59 -81 0
-448 19 41 63 0
448 -19 -41 -63 0
-449 19 41 81 0
449 -19 -41 -81 0
-450 19 59 81 0
450 -19 -59 -81 0
-451 37 59 81 0
451 -37 -59 -81 0
-452 1 27 41 0
452 -1 -27 -41 0
-453 1 27 59 0
453 -1 -27 -59 0
-454 1 27 77 0
454 -1 -27 -77 0
-455 1 45 59 0
455 -1 -45 -59 0
-456 1 45 77 0
456 -1 -45 -77 0
-457 1 63 77 0
457 -1 -63 -77 0
-458 19 45 59 0
458 -19 -45 -59 0
-459 19 45 77 0
459 -19 -45 -77 0
-460 19 63 77 0
460 -19 -63 -77 0
-461 37 63 77 0
461 -37 -63 -77 0
-462 5 19 45 0
462 -5 -19 -45 0
-463 5 19 63 0
463 -5 -19 -63 0
-464 5 19 81 0
464 -5 -19 -81 0
-465 5 37 63 0
465 -5 -37 -63 0
-466 5 37 81 0
466 -5 -37 -81 0
-467 5 55 81 0
467 -5 -55 -81 0
-468 23 37 63 0
468 -23 -37 -63 0
-469 23 37 81 0
469 -23 -37 -81 0
-470 23 55 81 0
470 -23 -55 -81 0
-471 41 55 81 0
471 -41 -55 -81 0
-472 5 27 37 0
472 -5 -27 -37 0
-473 5 27 55 0
473 -5 -27 -55 0
-474 5 27 73 0
474 -5 -27 -73 0
-475 5 45 55 0
475 -5 -45 -55 0
-476 5 45 73 0
476 -5 -45 -73 0
-477 5 63 73 0
477 -5 -63 -73 0
-478 23 45 55 0
478 -23 -45 -55 0
-479 23 45 73 0
479 -23 -45 -73 0
-480 23 63 73 0
480 -23 -63 -73 0
-481 41 63 73 0
481 -41 -63 -73 0
-482 9 19 41 0
482 -9 -19 -41 0
-483 9 19 59 0
483 -9 -19 -59 0
-484 9 19 77 0
484 -9 -19 -77 0
-485 9 37 59 0
485 -9 -37 -59 0
-486 9 37 77 0
486 -9 -37 -77 0
-487 9 55 77 0
487 -9 -55 -77 0
-488 27 37 59 0
488 -27 -37 -59 0
-489 27 37 77 0
489 -27 -37 -77 0
-490 27 55 77 0
490 -27 -55 -77 0
-491 45 55 77 0
491 -45 -55 -77 0
-492 9 23 37 0
492 -9 -23 -37 0
-493 9 23 55 0
493 -9 -23 -55 0
-494 9 23 73 0
494 -9 -23 -73 0
-495 9 41 55 0
495 -9 -41 -55 0
-496 9 41 73 0
496 -9 -41 -73 0
-497 9 59 73 0
497 -9 -59 -73 0
-498 27 41 55 0
498 -27 -41 -55 0
-499 27 41 73 0
499 -27 -41 -73 0
-500 27 59 73 0
500 -27 -59 -73 0
-501 45 59 73 0
501 -45 -59 -73 0
-502 3 23 43 0
502 -3 -23 -43 0
-503 3 23 61 0
503 -3 -23 -61 0
-504 3 23 79 0
504 -3 -23 -79 0
-505 3 41 61 0
505 -3 -41 -61 0
-506 3 41 79 0
506 -3 -41 -79 0
-507 3 59 79 0
507 -3 -59 -79 0
-508 21 41 61 0
508 -21 -41 -61 0
-509 21 41 79 0
509 -21 -41 -79 0
-510 21 59 79 0
510 -21 -59 -79 0
-511 39 59 79 0
511 -39 -59 -79 0
-512 3 25 41 0
512 -3 -25 -41 0
-513 3 25 59 0
513 -3 -25 -59 0
-514 3 25 77 0
514 -3 -25 -77 0
-515 3 43 59 0
515 -3 -43 -59 0
-516 3 43 77 0
516 -3 -43 -77 0
-517 3 61 77 0
517 -3 -61 -77 0
-518 21 43 59 0
518 -21 -43 -59 0
-519 21 43 77 0
519 -21 -43 -77 0
-520 21 61 77 0
520 -21 -61 -77 0
-521 39 61 77 0
521 -39 -61 -77 0
-522 5 21 43 0
522 -5 -21 -43 0
-523 5 21 61 0
523 -5 -21 -61 0
-524 5 21 79 0
524 -5 -21 -79 0
-525 5 39 61 0
525 -5 -39 -61 0
-526 5 39 79 0
526 -5 -39 -79 0
-527 5 57 79 0
527 -5 -57 -79 0
-528 23 39 61 0
528 -23 -39 -61 0
-529 23 39 79 0
529 -23 -39 -79 0
-530 23 57 79 0
530 -23 -57 -79 0
-531 41 57 79 0
531 -41 -57 -79 0
-532 5 25 39 0
532 -5 -25 -39 0
-533 5 25 57 0
533 -5 -25 -57 0
-534 5 25 75 0
534 -5 -25 -75 0
-535 5 43 57 0
535 -5 -43 -57 0
-536 5 43 75 0
536 -5 -43 -75 0
-537 5 61 75 0
537 -5 -61 -75 0
-538 23 43 57 0
538 -23 -43 -57 0
-539 23 43 75 0
539 -23 -43 -75 0
-540 23 61 75 0
540 -23 -61 -75 0
-541 41 61 75 0
541 -41 -61 -75 0
-542 7 21 41 0
542 -7 -21 -41 0
-543 7 21 59 0
543 -7 -21 -59 0
-544 7 21 77 0
544 -7 -21 -77 0
-545 7 39 59 0
545 -7 -39 -59 0
-546 7 39 77 0
546 -7 -39 -77 0
-547 7 57 77 0
547 -7 -57 -77 0
-548 25 39 59 0
548 -25 -39 -59 0
-549 25 39 77 0
549 -25 -39 -77 0
-550 25 57 77 0
550 -25 -57 -77 0
-551 43 57 77 0
551 -43 -57 -77 0
-552 7 23 39 0
552 -7 -23 -39 0
-553 7 23 57 0
553 -7 -23 -57 0
-554 7 23 75 0
554 -7 -23 -75 0
-555 7 41 57 0
555 -7 -41 -57 0
-556 7 41 75 0
556 -7 -41 -75 0
-557 7 59 75 0
557 -7 -59 -75 0
-558 25 41 57 0
558 -25 -41 -57 0
-559 25 41 75 0
559 -25 -41 -75 0
-560 25 59 75 0
560 -25 -59 -75 0
-561 43 59 75 0
561 -43 -59 -75 0
82 83 84 85 86 87 88 89 90 91 92 93 94 95 96 97 98 99 100 101 102 103 104 105 106 107 108 109 110 111 112 113 114 115 116 117 118 119 120 121 122 123 124 125 126 127 128 129 130 131 132 133 134 135 136 137 138 139 140 141 142 143 144 145 146 147 148 149 150 151 152 153 154 155 156 157 158 159 160 161 162 163 164 165 166 167 168 169 170 171 172 173 174 175 176 177 178 179 180 181 182 183 184 185 186 187 188 189 190 191 192 193 194 195 196 197 198 199 200 201 202 203 204 205 206 207 208 209 210 211 212 213 214 215 216 217 218 219 220 221 222 223 224 225 226 227 228 229 230 231 232 233 234 235 236 237 238 239 240 241 242 243 244 245 246 247 248 249 250 251 252 253 254 255 256 257 258 259 260 261 262 263 264 265 266 267 268 269 270 271 272 273 274 275 276 277 278 279 280 281 282 283 284 285 286 287 288 289 290 291 292 293 294 295 296 297 298 299 300 301 302 303 304 305 306 307 308 309 310 311 312 313 314 315 316 317 318 319 320 321 322 323 324 325 326 327 328 329 330 331 332 333 334 335 336 337 338 339 340 341 342 343 344 345 346 347 348 349 350 351 352 353 354 355 356 357 358 359 360 361 362 363 364 365 366 367 368 369 370 371 372 373 374 375 376 377 378 379 380 381 382 383 384 385 386 387 388 389 390 391 392 393 394 395 396 397 398 399 400 401 402 403 404 405 406 407 408 409 410 411 412 413 414 415 416 417 418 419 420 421 422 423 424 425 426 427 428 429 430 431 432 433 434 435 436 437 438 439 440 441 442 443 444 445 446 447 448 449 450 451 452 453 454 455 456 457 458 459 460 461 462 463 464 465 466 467 468 469 470 471 472 473 474 475 476 477 478 479 480 481 482 483 484 485 486 487 488 489 490 491 492 493 494 495 496 497 498 499 500 501 502 503 504 505 506 507 508 509 510 511 512 513 514 515 516 517 518 519 520 521 522 523 524 525 526 527 528 529 530 531 532 533 534 535 536 537 538 539 540 541 542 543 544 545 546 547 548 549 550 551 552 553 554 555 556 557 558 559 560 561 0
